32
473 	511 
716 	48 
545 	625 
665 	640 
423 	927 
762 	380 
886 	468 
321 	407 
722 	450 
714 	816 
676 	538 
161 	888 
759 	539 
390 	368 
508 	588 
309 	328 
854 	232 
286 	825 
150 	652 
334 	15 
35 	24 
885 	984 
522 	859 
61 	765 
739 	968 
867 	705 
347 	715 
422 	129 
717 	551 
315 	184 
723 	87 
307 	234 
